unsat
(:max-memory          18.08
 :memory              17.94
 :nlsat-conflicts     2
 :nlsat-learned-added 1
 :nlsat-propagations  8
 :nlsat-stages        2
 :num-allocs          6867
 :rlimit-count        3168
 :time                0.00
 :total-time          0.01)
